
(set-logic HORN)
(define-fun Z_224 () Int 0)
(define-fun S_79 ((x Int)) Int (+ x 1))
(declare-datatypes ((Bool_41 0)) (((false_41) (true_41))))
(declare-fun diseqBool_15 (Bool_41 Bool_41) Bool)
(declare-fun isfalse_15 (Bool_41) Bool)
(declare-fun istrue_15 (Bool_41) Bool)
(assert (isfalse_15 false_41))
(assert (istrue_15 true_41))
(assert (diseqBool_15 false_41 true_41))
(assert (diseqBool_15 true_41 false_41))
(declare-fun and_41 (Bool_41 Bool_41 Bool_41) Bool)
(declare-fun or_41 (Bool_41 Bool_41 Bool_41) Bool)
(declare-fun hence_41 (Bool_41 Bool_41 Bool_41) Bool)
(declare-fun not_41 (Bool_41 Bool_41) Bool)
(assert (and_41 false_41 false_41 false_41))
(assert (and_41 false_41 true_41 false_41))
(assert (and_41 false_41 false_41 true_41))
(assert (and_41 true_41 true_41 true_41))
(assert (or_41 false_41 false_41 false_41))
(assert (or_41 true_41 true_41 false_41))
(assert (or_41 true_41 false_41 true_41))
(assert (or_41 true_41 true_41 true_41))
(assert (hence_41 true_41 false_41 false_41))
(assert (hence_41 false_41 true_41 false_41))
(assert (hence_41 true_41 false_41 true_41))
(assert (hence_41 true_41 true_41 true_41))
(assert (not_41 true_41 false_41))
(assert (not_41 false_41 true_41))
(declare-fun diseqInt (Int Int) Bool)
(declare-fun projS_77 (Int Int) Bool)
(declare-fun isZ_79 (Int) Bool)
(declare-fun isS_79 (Int) Bool)
(assert (forall ((x_2239 Int))
	(projS_77 x_2239 (S_79 x_2239))))
(assert (isZ_79 Z_224))
(assert (forall ((x_2241 Int))
	(isS_79 (S_79 x_2241))))
(assert (forall ((x_2242 Int))
	(diseqInt Z_224 (S_79 x_2242))))
(assert (forall ((x_2243 Int))
	(diseqInt (S_79 x_2243) Z_224)))
(assert (forall ((x_2244 Int) (x_2245 Int))
	(=> (diseqInt x_2244 x_2245) (diseqInt (S_79 x_2244) (S_79 x_2245)))))
(declare-fun x_2221 (Bool_41 Int Int) Bool)
(assert (forall ((x_2226 Bool_41) (x_2223 Int) (z_225 Int))
	(=> (x_2221 x_2226 x_2223 z_225) (x_2221 x_2226 (S_79 x_2223) (S_79 z_225)))))
(assert (forall ((z_225 Int))
	(x_2221 true_41 Z_224 (S_79 z_225))))
(assert (forall ((x_2222 Int))
	(x_2221 false_41 x_2222 Z_224)))
(declare-fun x_2224 (Int Int Int) Bool)
(assert (forall ((x_2231 Int) (z_226 Int) (y_177 Int))
	(=> (x_2224 x_2231 z_226 y_177) (x_2224 (S_79 x_2231) (S_79 z_226) y_177))))
(assert (forall ((x_2232 Int))
	(x_2224 x_2232 Z_224 x_2232)))
(assert (forall ((x_2233 Int) (i_3 Int) (m_6 Int))
	(=> (and true (x_2224 x_2233 i_3 m_6) (x_2221 false_41 i_3 (S_79 x_2233))) false)))
(check-sat)
